data/lp_files/q3/55_2.lp
\ Model foo
\ LP format - for model browsing. Use MPS format to capture full model detail.
Minimize
  z
Subject To
 allocateEach[1]: x[1,1] + x[2,1] + x[3,1] = 1
 allocateEach[2]: x[1,2] + x[2,2] + x[3,2] = 1
 allocateEach[3]: x[1,3] + x[2,3] + x[3,3] = 1
 allocateEach[4]: x[1,4] + x[2,4] + x[3,4] = 1
 allocateEach[5]: x[1,5] + x[2,5] + x[3,5] = 1
 allocateEach[6]: x[1,6] + x[2,6] + x[3,6] = 1
 allocateEach[7]: x[1,7] + x[2,7] + x[3,7] = 1
 allocateEach[8]: x[1,8] + x[2,8] + x[3,8] = 1
 allocateEach[9]: x[1,9] + x[2,9] + x[3,9] = 1
 allocateEach[10]: x[1,10] + x[2,10] + x[3,10] = 1
 allocateEach[11]: x[1,11] + x[2,11] + x[3,11] = 1
 allocateEach[12]: x[1,12] + x[2,12] + x[3,12] = 1
 allocateEach[13]: x[1,13] + x[2,13] + x[3,13] = 1
 allocateEach[14]: x[1,14] + x[2,14] + x[3,14] = 1
 allocateEach[15]: x[1,15] + x[2,15] + x[3,15] = 1
 allocateAllCash: cashProportion[1] + cashProportion[2] + cashProportion[3]
   = 1
 findWorstP[1,2]: z + 0.018360976803966 cashProportion[1]
   - 0.018360976803966 cashProportion[2] + 0.028569679906971 x[1,1]
   + 0.0392924903604872 x[1,2] + 0.039402656221311 x[1,3]
   + 0.0813513678927719 x[1,4] + 0.0606891486627089 x[1,5]
   + 0.0825142297570231 x[1,6] + 0.0712773119529959 x[1,7]
   + 0.1110961503151967 x[1,8] + 0.00872758430748516 x[1,9]
   + 0.078976681559459 x[1,10] + 0.0696370646918416 x[1,11]
   + 0.106995532162311 x[1,12] + 0.1209865964869331 x[1,13]
   + 0.00610808495011935 x[1,14] + 0.0760144439684191 x[1,15]
   - 0.028569679906971 x[2,1] - 0.0392924903604872 x[2,2]
   - 0.039402656221311 x[2,3] - 0.0813513678927719 x[2,4]
   - 0.0606891486627089 x[2,5] - 0.0825142297570231 x[2,6]
   - 0.0712773119529959 x[2,7] - 0.1110961503151967 x[2,8]
   - 0.00872758430748516 x[2,9] - 0.078976681559459 x[2,10]
   - 0.0696370646918416 x[2,11] - 0.106995532162311 x[2,12]
   - 0.1209865964869331 x[2,13] - 0.00610808495011935 x[2,14]
   - 0.0760144439684191 x[2,15] >= 0
 findWorstP[1,3]: z + 0.018360976803966 cashProportion[1]
   - 0.018360976803966 cashProportion[3] + 0.028569679906971 x[1,1]
   + 0.0392924903604872 x[1,2] + 0.039402656221311 x[1,3]
   + 0.0813513678927719 x[1,4] + 0.0606891486627089 x[1,5]
   + 0.0825142297570231 x[1,6] + 0.0712773119529959 x[1,7]
   + 0.1110961503151967 x[1,8] + 0.00872758430748516 x[1,9]
   + 0.078976681559459 x[1,10] + 0.0696370646918416 x[1,11]
   + 0.106995532162311 x[1,12] + 0.1209865964869331 x[1,13]
   + 0.00610808495011935 x[1,14] + 0.0760144439684191 x[1,15]
   - 0.028569679906971 x[3,1] - 0.0392924903604872 x[3,2]
   - 0.039402656221311 x[3,3] - 0.0813513678927719 x[3,4]
   - 0.0606891486627089 x[3,5] - 0.0825142297570231 x[3,6]
   - 0.0712773119529959 x[3,7] - 0.1110961503151967 x[3,8]
   - 0.00872758430748516 x[3,9] - 0.078976681559459 x[3,10]
   - 0.0696370646918416 x[3,11] - 0.106995532162311 x[3,12]
   - 0.1209865964869331 x[3,13] - 0.00610808495011935 x[3,14]
   - 0.0760144439684191 x[3,15] >= 0
 findWorstP[2,1]: z - 0.0191948404268933 cashProportion[1]
   + 0.0191948404268933 cashProportion[2] - 0.046694648478489 x[1,1]
   - 0.0690246461751081 x[1,2] - 0.1083996621708085 x[1,3]
   - 0.0923911652547795 x[1,4] - 0.0334885982647864 x[1,5]
   - 0.0183758605686791 x[1,6] - 0.0507383615284212 x[1,7]
   - 0.0533872495073324 x[1,8] - 0.0610523891178051 x[1,9]
   - 0.1111125329511427 x[1,10] - 0.0553323266705909 x[1,11]
   - 0.00742200496506539 x[1,12] - 0.1119699024902106 x[1,13]
   - 0.06833363191974 x[1,14] - 0.0930821795101477 x[1,15]
   + 0.046694648478489 x[2,1] + 0.0690246461751081 x[2,2]
   + 0.1083996621708085 x[2,3] + 0.0923911652547795 x[2,4]
   + 0.0334885982647864 x[2,5] + 0.0183758605686791 x[2,6]
   + 0.0507383615284212 x[2,7] + 0.0533872495073324 x[2,8]
   + 0.0610523891178051 x[2,9] + 0.1111125329511427 x[2,10]
   + 0.0553323266705909 x[2,11] + 0.00742200496506539 x[2,12]
   + 0.1119699024902106 x[2,13] + 0.06833363191974 x[2,14]
   + 0.0930821795101477 x[2,15] >= 0
 findWorstP[2,3]: z + 0.0191948404268933 cashProportion[2]
   - 0.0191948404268933 cashProportion[3] + 0.046694648478489 x[2,1]
   + 0.0690246461751081 x[2,2] + 0.1083996621708085 x[2,3]
   + 0.0923911652547795 x[2,4] + 0.0334885982647864 x[2,5]
   + 0.0183758605686791 x[2,6] + 0.0507383615284212 x[2,7]
   + 0.0533872495073324 x[2,8] + 0.0610523891178051 x[2,9]
   + 0.1111125329511427 x[2,10] + 0.0553323266705909 x[2,11]
   + 0.00742200496506539 x[2,12] + 0.1119699024902106 x[2,13]
   + 0.06833363191974 x[2,14] + 0.0930821795101477 x[2,15]
   - 0.046694648478489 x[3,1] - 0.0690246461751081 x[3,2]
   - 0.1083996621708085 x[3,3] - 0.0923911652547795 x[3,4]
   - 0.0334885982647864 x[3,5] - 0.0183758605686791 x[3,6]
   - 0.0507383615284212 x[3,7] - 0.0533872495073324 x[3,8]
   - 0.0610523891178051 x[3,9] - 0.1111125329511427 x[3,10]
   - 0.0553323266705909 x[3,11] - 0.00742200496506539 x[3,12]
   - 0.1119699024902106 x[3,13] - 0.06833363191974 x[3,14]
   - 0.0930821795101477 x[3,15] >= 0
 findWorstP[3,1]: z - 0.0202782171391491 cashProportion[1]
   + 0.0202782171391491 cashProportion[3] - 0.0246718308526314 x[1,1]
   - 0.0460045152830163 x[1,2] - 0.0520474239904828 x[1,3]
   - 0.0386097254329399 x[1,4] - 0.00492084735910019 x[1,5]
   - 0.0725284233010234 x[1,6] - 0.1316867421016344 x[1,7]
   - 0.0836679239161293 x[1,8] - 0.1105027645969366 x[1,9]
   - 0.0889537791837342 x[1,10] - 0.0555487961498425 x[1,11]
   - 0.1298211461248327 x[1,12] - 0.00970650660393938 x[1,13]
   - 0.1289829798164145 x[1,14] - 0.00206837814819321 x[1,15]
   + 0.0246718308526314 x[3,1] + 0.0460045152830163 x[3,2]
   + 0.0520474239904828 x[3,3] + 0.0386097254329399 x[3,4]
   + 0.00492084735910019 x[3,5] + 0.0725284233010234 x[3,6]
   + 0.1316867421016344 x[3,7] + 0.0836679239161293 x[3,8]
   + 0.1105027645969366 x[3,9] + 0.0889537791837342 x[3,10]
   + 0.0555487961498425 x[3,11] + 0.1298211461248327 x[3,12]
   + 0.00970650660393938 x[3,13] + 0.1289829798164145 x[3,14]
   + 0.00206837814819321 x[3,15] >= 0
 findWorstP[3,2]: z - 0.0202782171391491 cashProportion[2]
   + 0.0202782171391491 cashProportion[3] - 0.0246718308526314 x[2,1]
   - 0.0460045152830163 x[2,2] - 0.0520474239904828 x[2,3]
   - 0.0386097254329399 x[2,4] - 0.00492084735910019 x[2,5]
   - 0.0725284233010234 x[2,6] - 0.1316867421016344 x[2,7]
   - 0.0836679239161293 x[2,8] - 0.1105027645969366 x[2,9]
   - 0.0889537791837342 x[2,10] - 0.0555487961498425 x[2,11]
   - 0.1298211461248327 x[2,12] - 0.00970650660393938 x[2,13]
   - 0.1289829798164145 x[2,14] - 0.00206837814819321 x[2,15]
   + 0.0246718308526314 x[3,1] + 0.0460045152830163 x[3,2]
   + 0.0520474239904828 x[3,3] + 0.0386097254329399 x[3,4]
   + 0.00492084735910019 x[3,5] + 0.0725284233010234 x[3,6]
   + 0.1316867421016344 x[3,7] + 0.0836679239161293 x[3,8]
   + 0.1105027645969366 x[3,9] + 0.0889537791837342 x[3,10]
   + 0.0555487961498425 x[3,11] + 0.1298211461248327 x[3,12]
   + 0.00970650660393938 x[3,13] + 0.1289829798164145 x[3,14]
   + 0.00206837814819321 x[3,15] >= 0
Bounds
 z <= 1
 -infinity <= cashProportion[1] <= 1
 -infinity <= cashProportion[2] <= 1
 -infinity <= cashProportion[3] <= 1
Binaries
 x[1,1] x[1,2] x[1,3] x[1,4] x[1,5] x[1,6] x[1,7] x[1,8] x[1,9] x[1,10]
 x[1,11] x[1,12] x[1,13] x[1,14] x[1,15] x[2,1] x[2,2] x[2,3] x[2,4] x[2,5]
 x[2,6] x[2,7] x[2,8] x[2,9] x[2,10] x[2,11] x[2,12] x[2,13] x[2,14]
 x[2,15] x[3,1] x[3,2] x[3,3] x[3,4] x[3,5] x[3,6] x[3,7] x[3,8] x[3,9]
 x[3,10] x[3,11] x[3,12] x[3,13] x[3,14] x[3,15]
End
