data/mps_files/q3/55_2.mps
NAME foo
ROWS
 N  OBJ
 E  allocateEach[1]
 E  allocateEach[2]
 E  allocateEach[3]
 E  allocateEach[4]
 E  allocateEach[5]
 E  allocateEach[6]
 E  allocateEach[7]
 E  allocateEach[8]
 E  allocateEach[9]
 E  allocateEach[10]
 E  allocateEach[11]
 E  allocateEach[12]
 E  allocateEach[13]
 E  allocateEach[14]
 E  allocateEach[15]
 E  allocateAllCash
 G  findWorstP[1,2]
 G  findWorstP[1,3]
 G  findWorstP[2,1]
 G  findWorstP[2,3]
 G  findWorstP[3,1]
 G  findWorstP[3,2]
COLUMNS
    z         OBJ       1
    z         findWorstP[1,2]  1
    z         findWorstP[1,3]  1
    z         findWorstP[2,1]  1
    z         findWorstP[2,3]  1
    z         findWorstP[3,1]  1
    z         findWorstP[3,2]  1
    cashProportion[1]  allocateAllCash  1
    cashProportion[1]  findWorstP[1,2]  1.8360976803965971e-02
    cashProportion[1]  findWorstP[1,3]  1.8360976803965971e-02
    cashProportion[1]  findWorstP[2,1]  -1.9194840426893255e-02
    cashProportion[1]  findWorstP[3,1]  -2.0278217139149127e-02
    cashProportion[2]  allocateAllCash  1
    cashProportion[2]  findWorstP[1,2]  -1.8360976803965971e-02
    cashProportion[2]  findWorstP[2,1]  1.9194840426893255e-02
    cashProportion[2]  findWorstP[2,3]  1.9194840426893255e-02
    cashProportion[2]  findWorstP[3,2]  -2.0278217139149127e-02
    cashProportion[3]  allocateAllCash  1
    cashProportion[3]  findWorstP[1,3]  -1.8360976803965971e-02
    cashProportion[3]  findWorstP[2,3]  -1.9194840426893255e-02
    cashProportion[3]  findWorstP[3,1]  2.0278217139149127e-02
    cashProportion[3]  findWorstP[3,2]  2.0278217139149127e-02
    MARKER    'MARKER'                 'INTORG'
    x[1,1]    allocateEach[1]  1
    x[1,1]    findWorstP[1,2]  2.8569679906971047e-02
    x[1,1]    findWorstP[1,3]  2.8569679906971047e-02
    x[1,1]    findWorstP[2,1]  -4.6694648478488983e-02
    x[1,1]    findWorstP[3,1]  -2.4671830852631436e-02
    x[1,2]    allocateEach[2]  1
    x[1,2]    findWorstP[1,2]  3.9292490360487174e-02
    x[1,2]    findWorstP[1,3]  3.9292490360487174e-02
    x[1,2]    findWorstP[2,1]  -6.9024646175108131e-02
    x[1,2]    findWorstP[3,1]  -4.6004515283016315e-02
    x[1,3]    allocateEach[3]  1
    x[1,3]    findWorstP[1,2]  3.9402656221310971e-02
    x[1,3]    findWorstP[1,3]  3.9402656221310971e-02
    x[1,3]    findWorstP[2,1]  -1.0839966217080849e-01
    x[1,3]    findWorstP[3,1]  -5.2047423990482754e-02
    x[1,4]    allocateEach[4]  1
    x[1,4]    findWorstP[1,2]  8.1351367892771878e-02
    x[1,4]    findWorstP[1,3]  8.1351367892771878e-02
    x[1,4]    findWorstP[2,1]  -9.2391165254779514e-02
    x[1,4]    findWorstP[3,1]  -3.8609725432939938e-02
    x[1,5]    allocateEach[5]  1
    x[1,5]    findWorstP[1,2]  6.0689148662708851e-02
    x[1,5]    findWorstP[1,3]  6.0689148662708851e-02
    x[1,5]    findWorstP[2,1]  -3.3488598264786423e-02
    x[1,5]    findWorstP[3,1]  -4.9208473591001878e-03
    x[1,6]    allocateEach[6]  1
    x[1,6]    findWorstP[1,2]  8.2514229757023064e-02
    x[1,6]    findWorstP[1,3]  8.2514229757023064e-02
    x[1,6]    findWorstP[2,1]  -1.8375860568679139e-02
    x[1,6]    findWorstP[3,1]  -7.2528423301023368e-02
    x[1,7]    allocateEach[7]  1
    x[1,7]    findWorstP[1,2]  0.0712773119529959
    x[1,7]    findWorstP[1,3]  0.0712773119529959
    x[1,7]    findWorstP[2,1]  -5.0738361528421164e-02
    x[1,7]    findWorstP[3,1]  -1.3168674210163442e-01
    x[1,8]    allocateEach[8]  1
    x[1,8]    findWorstP[1,2]  1.1109615031519675e-01
    x[1,8]    findWorstP[1,3]  1.1109615031519675e-01
    x[1,8]    findWorstP[2,1]  -5.3387249507332431e-02
    x[1,8]    findWorstP[3,1]  -8.3667923916129289e-02
    x[1,9]    allocateEach[9]  1
    x[1,9]    findWorstP[1,2]  8.7275843074851572e-03
    x[1,9]    findWorstP[1,3]  8.7275843074851572e-03
    x[1,9]    findWorstP[2,1]  -6.1052389117805139e-02
    x[1,9]    findWorstP[3,1]  -1.1050276459693664e-01
    x[1,10]   allocateEach[10]  1
    x[1,10]   findWorstP[1,2]  7.8976681559458958e-02
    x[1,10]   findWorstP[1,3]  7.8976681559458958e-02
    x[1,10]   findWorstP[2,1]  -1.1111253295114273e-01
    x[1,10]   findWorstP[3,1]  -8.8953779183734163e-02
    x[1,11]   allocateEach[11]  1
    x[1,11]   findWorstP[1,2]  0.0696370646918416
    x[1,11]   findWorstP[1,3]  0.0696370646918416
    x[1,11]   findWorstP[2,1]  -5.5332326670590945e-02
    x[1,11]   findWorstP[3,1]  -5.5548796149842504e-02
    x[1,12]   allocateEach[12]  1
    x[1,12]   findWorstP[1,2]  1.0699553216231102e-01
    x[1,12]   findWorstP[1,3]  1.0699553216231102e-01
    x[1,12]   findWorstP[2,1]  -7.4220049650653907e-03
    x[1,12]   findWorstP[3,1]  -1.2982114612483270e-01
    x[1,13]   allocateEach[13]  1
    x[1,13]   findWorstP[1,2]  1.2098659648693308e-01
    x[1,13]   findWorstP[1,3]  1.2098659648693308e-01
    x[1,13]   findWorstP[2,1]  -1.1196990249021063e-01
    x[1,13]   findWorstP[3,1]  -9.7065066039393813e-03
    x[1,14]   allocateEach[14]  1
    x[1,14]   findWorstP[1,2]  6.1080849501193458e-03
    x[1,14]   findWorstP[1,3]  6.1080849501193458e-03
    x[1,14]   findWorstP[2,1]  -6.8333631919739984e-02
    x[1,14]   findWorstP[3,1]  -1.2898297981641452e-01
    x[1,15]   allocateEach[15]  1
    x[1,15]   findWorstP[1,2]  7.6014443968419110e-02
    x[1,15]   findWorstP[1,3]  7.6014443968419110e-02
    x[1,15]   findWorstP[2,1]  -9.3082179510147675e-02
    x[1,15]   findWorstP[3,1]  -2.0683781481932108e-03
    x[2,1]    allocateEach[1]  1
    x[2,1]    findWorstP[1,2]  -2.8569679906971047e-02
    x[2,1]    findWorstP[2,1]  4.6694648478488983e-02
    x[2,1]    findWorstP[2,3]  4.6694648478488983e-02
    x[2,1]    findWorstP[3,2]  -2.4671830852631436e-02
    x[2,2]    allocateEach[2]  1
    x[2,2]    findWorstP[1,2]  -3.9292490360487174e-02
    x[2,2]    findWorstP[2,1]  6.9024646175108131e-02
    x[2,2]    findWorstP[2,3]  6.9024646175108131e-02
    x[2,2]    findWorstP[3,2]  -4.6004515283016315e-02
    x[2,3]    allocateEach[3]  1
    x[2,3]    findWorstP[1,2]  -3.9402656221310971e-02
    x[2,3]    findWorstP[2,1]  1.0839966217080849e-01
    x[2,3]    findWorstP[2,3]  1.0839966217080849e-01
    x[2,3]    findWorstP[3,2]  -5.2047423990482754e-02
    x[2,4]    allocateEach[4]  1
    x[2,4]    findWorstP[1,2]  -8.1351367892771878e-02
    x[2,4]    findWorstP[2,1]  9.2391165254779514e-02
    x[2,4]    findWorstP[2,3]  9.2391165254779514e-02
    x[2,4]    findWorstP[3,2]  -3.8609725432939938e-02
    x[2,5]    allocateEach[5]  1
    x[2,5]    findWorstP[1,2]  -6.0689148662708851e-02
    x[2,5]    findWorstP[2,1]  3.3488598264786423e-02
    x[2,5]    findWorstP[2,3]  3.3488598264786423e-02
    x[2,5]    findWorstP[3,2]  -4.9208473591001878e-03
    x[2,6]    allocateEach[6]  1
    x[2,6]    findWorstP[1,2]  -8.2514229757023064e-02
    x[2,6]    findWorstP[2,1]  1.8375860568679139e-02
    x[2,6]    findWorstP[2,3]  1.8375860568679139e-02
    x[2,6]    findWorstP[3,2]  -7.2528423301023368e-02
    x[2,7]    allocateEach[7]  1
    x[2,7]    findWorstP[1,2]  -0.0712773119529959
    x[2,7]    findWorstP[2,1]  5.0738361528421164e-02
    x[2,7]    findWorstP[2,3]  5.0738361528421164e-02
    x[2,7]    findWorstP[3,2]  -1.3168674210163442e-01
    x[2,8]    allocateEach[8]  1
    x[2,8]    findWorstP[1,2]  -1.1109615031519675e-01
    x[2,8]    findWorstP[2,1]  5.3387249507332431e-02
    x[2,8]    findWorstP[2,3]  5.3387249507332431e-02
    x[2,8]    findWorstP[3,2]  -8.3667923916129289e-02
    x[2,9]    allocateEach[9]  1
    x[2,9]    findWorstP[1,2]  -8.7275843074851572e-03
    x[2,9]    findWorstP[2,1]  6.1052389117805139e-02
    x[2,9]    findWorstP[2,3]  6.1052389117805139e-02
    x[2,9]    findWorstP[3,2]  -1.1050276459693664e-01
    x[2,10]   allocateEach[10]  1
    x[2,10]   findWorstP[1,2]  -7.8976681559458958e-02
    x[2,10]   findWorstP[2,1]  1.1111253295114273e-01
    x[2,10]   findWorstP[2,3]  1.1111253295114273e-01
    x[2,10]   findWorstP[3,2]  -8.8953779183734163e-02
    x[2,11]   allocateEach[11]  1
    x[2,11]   findWorstP[1,2]  -0.0696370646918416
    x[2,11]   findWorstP[2,1]  5.5332326670590945e-02
    x[2,11]   findWorstP[2,3]  5.5332326670590945e-02
    x[2,11]   findWorstP[3,2]  -5.5548796149842504e-02
    x[2,12]   allocateEach[12]  1
    x[2,12]   findWorstP[1,2]  -1.0699553216231102e-01
    x[2,12]   findWorstP[2,1]  7.4220049650653907e-03
    x[2,12]   findWorstP[2,3]  7.4220049650653907e-03
    x[2,12]   findWorstP[3,2]  -1.2982114612483270e-01
    x[2,13]   allocateEach[13]  1
    x[2,13]   findWorstP[1,2]  -1.2098659648693308e-01
    x[2,13]   findWorstP[2,1]  1.1196990249021063e-01
    x[2,13]   findWorstP[2,3]  1.1196990249021063e-01
    x[2,13]   findWorstP[3,2]  -9.7065066039393813e-03
    x[2,14]   allocateEach[14]  1
    x[2,14]   findWorstP[1,2]  -6.1080849501193458e-03
    x[2,14]   findWorstP[2,1]  6.8333631919739984e-02
    x[2,14]   findWorstP[2,3]  6.8333631919739984e-02
    x[2,14]   findWorstP[3,2]  -1.2898297981641452e-01
    x[2,15]   allocateEach[15]  1
    x[2,15]   findWorstP[1,2]  -7.6014443968419110e-02
    x[2,15]   findWorstP[2,1]  9.3082179510147675e-02
    x[2,15]   findWorstP[2,3]  9.3082179510147675e-02
    x[2,15]   findWorstP[3,2]  -2.0683781481932108e-03
    x[3,1]    allocateEach[1]  1
    x[3,1]    findWorstP[1,3]  -2.8569679906971047e-02
    x[3,1]    findWorstP[2,3]  -4.6694648478488983e-02
    x[3,1]    findWorstP[3,1]  2.4671830852631436e-02
    x[3,1]    findWorstP[3,2]  2.4671830852631436e-02
    x[3,2]    allocateEach[2]  1
    x[3,2]    findWorstP[1,3]  -3.9292490360487174e-02
    x[3,2]    findWorstP[2,3]  -6.9024646175108131e-02
    x[3,2]    findWorstP[3,1]  4.6004515283016315e-02
    x[3,2]    findWorstP[3,2]  4.6004515283016315e-02
    x[3,3]    allocateEach[3]  1
    x[3,3]    findWorstP[1,3]  -3.9402656221310971e-02
    x[3,3]    findWorstP[2,3]  -1.0839966217080849e-01
    x[3,3]    findWorstP[3,1]  5.2047423990482754e-02
    x[3,3]    findWorstP[3,2]  5.2047423990482754e-02
    x[3,4]    allocateEach[4]  1
    x[3,4]    findWorstP[1,3]  -8.1351367892771878e-02
    x[3,4]    findWorstP[2,3]  -9.2391165254779514e-02
    x[3,4]    findWorstP[3,1]  3.8609725432939938e-02
    x[3,4]    findWorstP[3,2]  3.8609725432939938e-02
    x[3,5]    allocateEach[5]  1
    x[3,5]    findWorstP[1,3]  -6.0689148662708851e-02
    x[3,5]    findWorstP[2,3]  -3.3488598264786423e-02
    x[3,5]    findWorstP[3,1]  4.9208473591001878e-03
    x[3,5]    findWorstP[3,2]  4.9208473591001878e-03
    x[3,6]    allocateEach[6]  1
    x[3,6]    findWorstP[1,3]  -8.2514229757023064e-02
    x[3,6]    findWorstP[2,3]  -1.8375860568679139e-02
    x[3,6]    findWorstP[3,1]  7.2528423301023368e-02
    x[3,6]    findWorstP[3,2]  7.2528423301023368e-02
    x[3,7]    allocateEach[7]  1
    x[3,7]    findWorstP[1,3]  -0.0712773119529959
    x[3,7]    findWorstP[2,3]  -5.0738361528421164e-02
    x[3,7]    findWorstP[3,1]  1.3168674210163442e-01
    x[3,7]    findWorstP[3,2]  1.3168674210163442e-01
    x[3,8]    allocateEach[8]  1
    x[3,8]    findWorstP[1,3]  -1.1109615031519675e-01
    x[3,8]    findWorstP[2,3]  -5.3387249507332431e-02
    x[3,8]    findWorstP[3,1]  8.3667923916129289e-02
    x[3,8]    findWorstP[3,2]  8.3667923916129289e-02
    x[3,9]    allocateEach[9]  1
    x[3,9]    findWorstP[1,3]  -8.7275843074851572e-03
    x[3,9]    findWorstP[2,3]  -6.1052389117805139e-02
    x[3,9]    findWorstP[3,1]  1.1050276459693664e-01
    x[3,9]    findWorstP[3,2]  1.1050276459693664e-01
    x[3,10]   allocateEach[10]  1
    x[3,10]   findWorstP[1,3]  -7.8976681559458958e-02
    x[3,10]   findWorstP[2,3]  -1.1111253295114273e-01
    x[3,10]   findWorstP[3,1]  8.8953779183734163e-02
    x[3,10]   findWorstP[3,2]  8.8953779183734163e-02
    x[3,11]   allocateEach[11]  1
    x[3,11]   findWorstP[1,3]  -0.0696370646918416
    x[3,11]   findWorstP[2,3]  -5.5332326670590945e-02
    x[3,11]   findWorstP[3,1]  5.5548796149842504e-02
    x[3,11]   findWorstP[3,2]  5.5548796149842504e-02
    x[3,12]   allocateEach[12]  1
    x[3,12]   findWorstP[1,3]  -1.0699553216231102e-01
    x[3,12]   findWorstP[2,3]  -7.4220049650653907e-03
    x[3,12]   findWorstP[3,1]  1.2982114612483270e-01
    x[3,12]   findWorstP[3,2]  1.2982114612483270e-01
    x[3,13]   allocateEach[13]  1
    x[3,13]   findWorstP[1,3]  -1.2098659648693308e-01
    x[3,13]   findWorstP[2,3]  -1.1196990249021063e-01
    x[3,13]   findWorstP[3,1]  9.7065066039393813e-03
    x[3,13]   findWorstP[3,2]  9.7065066039393813e-03
    x[3,14]   allocateEach[14]  1
    x[3,14]   findWorstP[1,3]  -6.1080849501193458e-03
    x[3,14]   findWorstP[2,3]  -6.8333631919739984e-02
    x[3,14]   findWorstP[3,1]  1.2898297981641452e-01
    x[3,14]   findWorstP[3,2]  1.2898297981641452e-01
    x[3,15]   allocateEach[15]  1
    x[3,15]   findWorstP[1,3]  -7.6014443968419110e-02
    x[3,15]   findWorstP[2,3]  -9.3082179510147675e-02
    x[3,15]   findWorstP[3,1]  2.0683781481932108e-03
    x[3,15]   findWorstP[3,2]  2.0683781481932108e-03
    MARKER    'MARKER'                 'INTEND'
RHS
    RHS1      allocateEach[1]  1
    RHS1      allocateEach[2]  1
    RHS1      allocateEach[3]  1
    RHS1      allocateEach[4]  1
    RHS1      allocateEach[5]  1
    RHS1      allocateEach[6]  1
    RHS1      allocateEach[7]  1
    RHS1      allocateEach[8]  1
    RHS1      allocateEach[9]  1
    RHS1      allocateEach[10]  1
    RHS1      allocateEach[11]  1
    RHS1      allocateEach[12]  1
    RHS1      allocateEach[13]  1
    RHS1      allocateEach[14]  1
    RHS1      allocateEach[15]  1
    RHS1      allocateAllCash  1
BOUNDS
 UP BND1      z         1
 MI BND1      cashProportion[1]
 UP BND1      cashProportion[1]  1
 MI BND1      cashProportion[2]
 UP BND1      cashProportion[2]  1
 MI BND1      cashProportion[3]
 UP BND1      cashProportion[3]  1
 BV BND1      x[1,1]  
 BV BND1      x[1,2]  
 BV BND1      x[1,3]  
 BV BND1      x[1,4]  
 BV BND1      x[1,5]  
 BV BND1      x[1,6]  
 BV BND1      x[1,7]  
 BV BND1      x[1,8]  
 BV BND1      x[1,9]  
 BV BND1      x[1,10] 
 BV BND1      x[1,11] 
 BV BND1      x[1,12] 
 BV BND1      x[1,13] 
 BV BND1      x[1,14] 
 BV BND1      x[1,15] 
 BV BND1      x[2,1]  
 BV BND1      x[2,2]  
 BV BND1      x[2,3]  
 BV BND1      x[2,4]  
 BV BND1      x[2,5]  
 BV BND1      x[2,6]  
 BV BND1      x[2,7]  
 BV BND1      x[2,8]  
 BV BND1      x[2,9]  
 BV BND1      x[2,10] 
 BV BND1      x[2,11] 
 BV BND1      x[2,12] 
 BV BND1      x[2,13] 
 BV BND1      x[2,14] 
 BV BND1      x[2,15] 
 BV BND1      x[3,1]  
 BV BND1      x[3,2]  
 BV BND1      x[3,3]  
 BV BND1      x[3,4]  
 BV BND1      x[3,5]  
 BV BND1      x[3,6]  
 BV BND1      x[3,7]  
 BV BND1      x[3,8]  
 BV BND1      x[3,9]  
 BV BND1      x[3,10] 
 BV BND1      x[3,11] 
 BV BND1      x[3,12] 
 BV BND1      x[3,13] 
 BV BND1      x[3,14] 
 BV BND1      x[3,15] 
ENDATA
